interdiction/MCDM/NO_CORR/GEN_FROM_60/14_ITEMS_1000_GEN/K5014W03.KNP.mps
NAME          BLANK   
ROWS
 N  OBJROW
 L  R0000000
COLUMNS
    C0000000  OBJROW     -780.         R0000000  449.        
    C0000001  OBJROW     -735.         R0000000  311.        
    C0000002  OBJROW     -258.         R0000000  76.         
    C0000003  OBJROW     -539.         R0000000  29.         
    C0000004  OBJROW     -901.         R0000000  181.        
    C0000005  OBJROW     -2.           R0000000  197.        
    C0000006  OBJROW     -777.         R0000000  382.        
    C0000007  OBJROW     -531.         R0000000  958.        
    C0000008  OBJROW     -375.         R0000000  806.        
    C0000009  OBJROW     -28.          R0000000  182.        
    C0000010  OBJROW     -743.         R0000000  580.        
    C0000011  OBJROW     -780.         R0000000  30.         
    C0000012  OBJROW     -19.          R0000000  174.        
    C0000013  OBJROW     -837.         R0000000  461.        
RHS
    RHS       R0000000  13865.      
BOUNDS
 BV BOUND     C0000000  1.          
 BV BOUND     C0000001  1.          
 BV BOUND     C0000002  1.          
 BV BOUND     C0000003  1.          
 BV BOUND     C0000004  1.          
 BV BOUND     C0000005  1.          
 BV BOUND     C0000006  1.          
 BV BOUND     C0000007  1.          
 BV BOUND     C0000008  1.          
 BV BOUND     C0000009  1.          
 BV BOUND     C0000010  1.          
 BV BOUND     C0000011  1.          
 BV BOUND     C0000012  1.          
 BV BOUND     C0000013  1.          
ENDATA
