data/MCDM/NO_CORR/GEN_FROM_60/14_ITEMS_1000_GEN/K5014W03.KNP.txt
N 14
M 15
LC 14
LC 15
LC 16
LC 17
LC 18
LC 19
LC 20
LC 21
LC 22
LC 23
LC 24
LC 25
LC 26
LC 27
LR 1
LR 2
LR 3
LR 4
LR 5
LR 6
LR 7
LR 8
LR 9
LR 10
LR 11
LR 12
LR 13
LR 14
LR 15
LO -780
LO -735
LO -258
LO -539
LO -901
LO -2
LO -777
LO -531
LO -375
LO -28
LO -743
LO -780
LO -19
LO -837
OS 1
IC 171
IC 403
IC 176
IC 870
IC 574
IC 914
IC 296
IC 576
IC 263
IC 254
IC 899
IC 335
IC 824
IC 34
IB 3295
